c Random generated cnf formula, satisfiable: true
p cnf 10 50
9 -6 5 0
6 -2 -5 0
3 -6 9 0
-7 -4 8 0
3 -2 -1 0
-9 10 -4 0
-1 4 2 0
-5 1 -4 0
-8 -1 -3 0
2 -1 -5 0
-3 -2 -5 0
-6 -8 4 0
8 1 -6 0
-5 -6 3 0
1 10 8 0
4 -10 -1 0
1 7 6 0
4 -3 6 0
7 5 -8 0
7 -4 -9 0
-2 5 1 0
2 -6 -7 0
-10 -6 -5 0
8 5 2 0
5 3 9 0
-1 9 6 0
-5 -8 6 0
2 -5 1 0
-8 1 -9 0
-7 1 -2 0
2 -1 -5 0
1 9 -5 0
-2 9 10 0
3 -4 -7 0
-4 7 2 0
7 3 6 0
-7 -6 -4 0
-1 -8 6 0
10 2 3 0
2 -5 3 0
2 -9 -10 0
-9 -5 -6 0
2 7 -9 0
2 -10 -3 0
-2 -4 -5 0
-1 5 -7 0
2 7 -8 0
-5 2 10 0
-7 2 -4 0
-5 6 -9 0
